p cnf 1058 1868
1 2 3 4 5 6 0
-1 562 0
-2 562 0
-1 -2 563 0
-3 564 0
-4 564 0
-3 -4 565 0
-5 566 0
-6 566 0
-5 -6 567 0
-564 568 0
-566 568 0
-564 -566 569 0
-565 570 0
-567 570 0
-565 -567 571 0
-569 572 0
-570 572 0
-569 -570 573 0
-562 574 0
-568 574 0
-562 -568 575 0
-563 576 0
-572 576 0
-563 -572 577 0
-575 578 0
-576 578 0
-575 -576 579 0
-578 0
55 56 57 58 59 60 0
-55 580 0
-56 580 0
-55 -56 581 0
-57 582 0
-58 582 0
-57 -58 583 0
-59 584 0
-60 584 0
-59 -60 585 0
-582 586 0
-584 586 0
-582 -584 587 0
-583 588 0
-585 588 0
-583 -585 589 0
-587 590 0
-588 590 0
-587 -588 591 0
-580 592 0
-586 592 0
-580 -586 593 0
-581 594 0
-590 594 0
-581 -590 595 0
-593 596 0
-594 596 0
-593 -594 597 0
-596 0
109 110 111 112 113 114 0
-109 598 0
-110 598 0
-109 -110 599 0
-111 600 0
-112 600 0
-111 -112 601 0
-113 602 0
-114 602 0
-113 -114 603 0
-600 604 0
-602 604 0
-600 -602 605 0
-601 606 0
-603 606 0
-601 -603 607 0
-605 608 0
-606 608 0
-605 -606 609 0
-598 610 0
-604 610 0
-598 -604 611 0
-599 612 0
-608 612 0
-599 -608 613 0
-611 614 0
-612 614 0
-611 -612 615 0
-614 0
7 8 9 10 11 12 0
-7 616 0
-8 616 0
-7 -8 617 0
-9 618 0
-10 618 0
-9 -10 619 0
-11 620 0
-12 620 0
-11 -12 621 0
-618 622 0
-620 622 0
-618 -620 623 0
-619 624 0
-621 624 0
-619 -621 625 0
-623 626 0
-624 626 0
-623 -624 627 0
-616 628 0
-622 628 0
-616 -622 629 0
-617 630 0
-626 630 0
-617 -626 631 0
-629 632 0
-630 632 0
-629 -630 633 0
-632 0
61 62 63 64 65 66 0
-61 634 0
-62 634 0
-61 -62 635 0
-63 636 0
-64 636 0
-63 -64 637 0
-65 638 0
-66 638 0
-65 -66 639 0
-636 640 0
-638 640 0
-636 -638 641 0
-637 642 0
-639 642 0
-637 -639 643 0
-641 644 0
-642 644 0
-641 -642 645 0
-634 646 0
-640 646 0
-634 -640 647 0
-635 648 0
-644 648 0
-635 -644 649 0
-647 650 0
-648 650 0
-647 -648 651 0
-650 0
115 116 117 118 119 120 0
-115 652 0
-116 652 0
-115 -116 653 0
-117 654 0
-118 654 0
-117 -118 655 0
-119 656 0
-120 656 0
-119 -120 657 0
-654 658 0
-656 658 0
-654 -656 659 0
-655 660 0
-657 660 0
-655 -657 661 0
-659 662 0
-660 662 0
-659 -660 663 0
-652 664 0
-658 664 0
-652 -658 665 0
-653 666 0
-662 666 0
-653 -662 667 0
-665 668 0
-666 668 0
-665 -666 669 0
-668 0
13 14 15 16 17 18 0
-13 670 0
-14 670 0
-13 -14 671 0
-15 672 0
-16 672 0
-15 -16 673 0
-17 674 0
-18 674 0
-17 -18 675 0
-672 676 0
-674 676 0
-672 -674 677 0
-673 678 0
-675 678 0
-673 -675 679 0
-677 680 0
-678 680 0
-677 -678 681 0
-670 682 0
-676 682 0
-670 -676 683 0
-671 684 0
-680 684 0
-671 -680 685 0
-683 686 0
-684 686 0
-683 -684 687 0
-686 0
67 68 69 70 71 72 0
-67 688 0
-68 688 0
-67 -68 689 0
-69 690 0
-70 690 0
-69 -70 691 0
-71 692 0
-72 692 0
-71 -72 693 0
-690 694 0
-692 694 0
-690 -692 695 0
-691 696 0
-693 696 0
-691 -693 697 0
-695 698 0
-696 698 0
-695 -696 699 0
-688 700 0
-694 700 0
-688 -694 701 0
-689 702 0
-698 702 0
-689 -698 703 0
-701 704 0
-702 704 0
-701 -702 705 0
-704 0
121 122 123 124 125 126 0
-121 706 0
-122 706 0
-121 -122 707 0
-123 708 0
-124 708 0
-123 -124 709 0
-125 710 0
-126 710 0
-125 -126 711 0
-708 712 0
-710 712 0
-708 -710 713 0
-709 714 0
-711 714 0
-709 -711 715 0
-713 716 0
-714 716 0
-713 -714 717 0
-706 718 0
-712 718 0
-706 -712 719 0
-707 720 0
-716 720 0
-707 -716 721 0
-719 722 0
-720 722 0
-719 -720 723 0
-722 0
19 20 21 22 23 24 0
-19 724 0
-20 724 0
-19 -20 725 0
-21 726 0
-22 726 0
-21 -22 727 0
-23 728 0
-24 728 0
-23 -24 729 0
-726 730 0
-728 730 0
-726 -728 731 0
-727 732 0
-729 732 0
-727 -729 733 0
-731 734 0
-732 734 0
-731 -732 735 0
-724 736 0
-730 736 0
-724 -730 737 0
-725 738 0
-734 738 0
-725 -734 739 0
-737 740 0
-738 740 0
-737 -738 741 0
-740 0
73 74 75 76 77 78 0
-73 742 0
-74 742 0
-73 -74 743 0
-75 744 0
-76 744 0
-75 -76 745 0
-77 746 0
-78 746 0
-77 -78 747 0
-744 748 0
-746 748 0
-744 -746 749 0
-745 750 0
-747 750 0
-745 -747 751 0
-749 752 0
-750 752 0
-749 -750 753 0
-742 754 0
-748 754 0
-742 -748 755 0
-743 756 0
-752 756 0
-743 -752 757 0
-755 758 0
-756 758 0
-755 -756 759 0
-758 0
127 128 129 130 131 132 0
-127 760 0
-128 760 0
-127 -128 761 0
-129 762 0
-130 762 0
-129 -130 763 0
-131 764 0
-132 764 0
-131 -132 765 0
-762 766 0
-764 766 0
-762 -764 767 0
-763 768 0
-765 768 0
-763 -765 769 0
-767 770 0
-768 770 0
-767 -768 771 0
-760 772 0
-766 772 0
-760 -766 773 0
-761 774 0
-770 774 0
-761 -770 775 0
-773 776 0
-774 776 0
-773 -774 777 0
-776 0
25 26 27 28 29 30 0
-25 778 0
-26 778 0
-25 -26 779 0
-27 780 0
-28 780 0
-27 -28 781 0
-29 782 0
-30 782 0
-29 -30 783 0
-780 784 0
-782 784 0
-780 -782 785 0
-781 786 0
-783 786 0
-781 -783 787 0
-785 788 0
-786 788 0
-785 -786 789 0
-778 790 0
-784 790 0
-778 -784 791 0
-779 792 0
-788 792 0
-779 -788 793 0
-791 794 0
-792 794 0
-791 -792 795 0
-794 0
79 80 81 82 83 84 0
-79 796 0
-80 796 0
-79 -80 797 0
-81 798 0
-82 798 0
-81 -82 799 0
-83 800 0
-84 800 0
-83 -84 801 0
-798 802 0
-800 802 0
-798 -800 803 0
-799 804 0
-801 804 0
-799 -801 805 0
-803 806 0
-804 806 0
-803 -804 807 0
-796 808 0
-802 808 0
-796 -802 809 0
-797 810 0
-806 810 0
-797 -806 811 0
-809 812 0
-810 812 0
-809 -810 813 0
-812 0
133 134 135 136 137 138 0
-133 814 0
-134 814 0
-133 -134 815 0
-135 816 0
-136 816 0
-135 -136 817 0
-137 818 0
-138 818 0
-137 -138 819 0
-816 820 0
-818 820 0
-816 -818 821 0
-817 822 0
-819 822 0
-817 -819 823 0
-821 824 0
-822 824 0
-821 -822 825 0
-814 826 0
-820 826 0
-814 -820 827 0
-815 828 0
-824 828 0
-815 -824 829 0
-827 830 0
-828 830 0
-827 -828 831 0
-830 0
31 32 33 34 35 36 0
-31 832 0
-32 832 0
-31 -32 833 0
-33 834 0
-34 834 0
-33 -34 835 0
-35 836 0
-36 836 0
-35 -36 837 0
-834 838 0
-836 838 0
-834 -836 839 0
-835 840 0
-837 840 0
-835 -837 841 0
-839 842 0
-840 842 0
-839 -840 843 0
-832 844 0
-838 844 0
-832 -838 845 0
-833 846 0
-842 846 0
-833 -842 847 0
-845 848 0
-846 848 0
-845 -846 849 0
-848 0
85 86 87 88 89 90 0
-85 850 0
-86 850 0
-85 -86 851 0
-87 852 0
-88 852 0
-87 -88 853 0
-89 854 0
-90 854 0
-89 -90 855 0
-852 856 0
-854 856 0
-852 -854 857 0
-853 858 0
-855 858 0
-853 -855 859 0
-857 860 0
-858 860 0
-857 -858 861 0
-850 862 0
-856 862 0
-850 -856 863 0
-851 864 0
-860 864 0
-851 -860 865 0
-863 866 0
-864 866 0
-863 -864 867 0
-866 0
139 140 141 142 143 144 0
-139 868 0
-140 868 0
-139 -140 869 0
-141 870 0
-142 870 0
-141 -142 871 0
-143 872 0
-144 872 0
-143 -144 873 0
-870 874 0
-872 874 0
-870 -872 875 0
-871 876 0
-873 876 0
-871 -873 877 0
-875 878 0
-876 878 0
-875 -876 879 0
-868 880 0
-874 880 0
-868 -874 881 0
-869 882 0
-878 882 0
-869 -878 883 0
-881 884 0
-882 884 0
-881 -882 885 0
-884 0
37 38 39 40 41 42 0
-37 886 0
-38 886 0
-37 -38 887 0
-39 888 0
-40 888 0
-39 -40 889 0
-41 890 0
-42 890 0
-41 -42 891 0
-888 892 0
-890 892 0
-888 -890 893 0
-889 894 0
-891 894 0
-889 -891 895 0
-893 896 0
-894 896 0
-893 -894 897 0
-886 898 0
-892 898 0
-886 -892 899 0
-887 900 0
-896 900 0
-887 -896 901 0
-899 902 0
-900 902 0
-899 -900 903 0
-902 0
91 92 93 94 95 96 0
-91 904 0
-92 904 0
-91 -92 905 0
-93 906 0
-94 906 0
-93 -94 907 0
-95 908 0
-96 908 0
-95 -96 909 0
-906 910 0
-908 910 0
-906 -908 911 0
-907 912 0
-909 912 0
-907 -909 913 0
-911 914 0
-912 914 0
-911 -912 915 0
-904 916 0
-910 916 0
-904 -910 917 0
-905 918 0
-914 918 0
-905 -914 919 0
-917 920 0
-918 920 0
-917 -918 921 0
-920 0
145 146 147 148 149 150 0
-145 922 0
-146 922 0
-145 -146 923 0
-147 924 0
-148 924 0
-147 -148 925 0
-149 926 0
-150 926 0
-149 -150 927 0
-924 928 0
-926 928 0
-924 -926 929 0
-925 930 0
-927 930 0
-925 -927 931 0
-929 932 0
-930 932 0
-929 -930 933 0
-922 934 0
-928 934 0
-922 -928 935 0
-923 936 0
-932 936 0
-923 -932 937 0
-935 938 0
-936 938 0
-935 -936 939 0
-938 0
43 44 45 46 47 48 0
-43 940 0
-44 940 0
-43 -44 941 0
-45 942 0
-46 942 0
-45 -46 943 0
-47 944 0
-48 944 0
-47 -48 945 0
-942 946 0
-944 946 0
-942 -944 947 0
-943 948 0
-945 948 0
-943 -945 949 0
-947 950 0
-948 950 0
-947 -948 951 0
-940 952 0
-946 952 0
-940 -946 953 0
-941 954 0
-950 954 0
-941 -950 955 0
-953 956 0
-954 956 0
-953 -954 957 0
-956 0
97 98 99 100 101 102 0
-97 958 0
-98 958 0
-97 -98 959 0
-99 960 0
-100 960 0
-99 -100 961 0
-101 962 0
-102 962 0
-101 -102 963 0
-960 964 0
-962 964 0
-960 -962 965 0
-961 966 0
-963 966 0
-961 -963 967 0
-965 968 0
-966 968 0
-965 -966 969 0
-958 970 0
-964 970 0
-958 -964 971 0
-959 972 0
-968 972 0
-959 -968 973 0
-971 974 0
-972 974 0
-971 -972 975 0
-974 0
151 152 153 154 155 156 0
-151 976 0
-152 976 0
-151 -152 977 0
-153 978 0
-154 978 0
-153 -154 979 0
-155 980 0
-156 980 0
-155 -156 981 0
-978 982 0
-980 982 0
-978 -980 983 0
-979 984 0
-981 984 0
-979 -981 985 0
-983 986 0
-984 986 0
-983 -984 987 0
-976 988 0
-982 988 0
-976 -982 989 0
-977 990 0
-986 990 0
-977 -986 991 0
-989 992 0
-990 992 0
-989 -990 993 0
-992 0
49 50 51 52 53 54 0
-49 994 0
-50 994 0
-49 -50 995 0
-51 996 0
-52 996 0
-51 -52 997 0
-53 998 0
-54 998 0
-53 -54 999 0
-996 1000 0
-998 1000 0
-996 -998 1001 0
-997 1002 0
-999 1002 0
-997 -999 1003 0
-1001 1004 0
-1002 1004 0
-1001 -1002 1005 0
-994 1006 0
-1000 1006 0
-994 -1000 1007 0
-995 1008 0
-1004 1008 0
-995 -1004 1009 0
-1007 1010 0
-1008 1010 0
-1007 -1008 1011 0
-1010 0
103 104 105 106 107 108 0
-103 1012 0
-104 1012 0
-103 -104 1013 0
-105 1014 0
-106 1014 0
-105 -106 1015 0
-107 1016 0
-108 1016 0
-107 -108 1017 0
-1014 1018 0
-1016 1018 0
-1014 -1016 1019 0
-1015 1020 0
-1017 1020 0
-1015 -1017 1021 0
-1019 1022 0
-1020 1022 0
-1019 -1020 1023 0
-1012 1024 0
-1018 1024 0
-1012 -1018 1025 0
-1013 1026 0
-1022 1026 0
-1013 -1022 1027 0
-1025 1028 0
-1026 1028 0
-1025 -1026 1029 0
-1028 0
157 158 159 160 161 162 0
-157 1030 0
-158 1030 0
-157 -158 1031 0
-159 1032 0
-160 1032 0
-159 -160 1033 0
-161 1034 0
-162 1034 0
-161 -162 1035 0
-1032 1036 0
-1034 1036 0
-1032 -1034 1037 0
-1033 1038 0
-1035 1038 0
-1033 -1035 1039 0
-1037 1040 0
-1038 1040 0
-1037 -1038 1041 0
-1030 1042 0
-1036 1042 0
-1030 -1036 1043 0
-1031 1044 0
-1040 1044 0
-1031 -1040 1045 0
-1043 1046 0
-1044 1046 0
-1043 -1044 1047 0
-1046 0
364 373 382 0
-364 325 0
-373 334 0
-382 343 0
365 374 383 0
-365 326 0
-374 335 0
-383 344 0
366 375 384 0
-366 327 0
-375 336 0
-384 345 0
367 376 385 0
-367 328 0
-376 337 0
-385 346 0
368 377 386 0
-368 329 0
-377 338 0
-386 347 0
369 378 387 0
-369 330 0
-378 339 0
-387 348 0
370 379 388 0
-370 331 0
-379 340 0
-388 349 0
371 380 389 0
-371 332 0
-380 341 0
-389 350 0
217 -1 -373 61 0
-55 373 61 0
-217 61 0
218 -2 -373 62 0
-56 373 62 0
-218 62 0
219 -3 -373 63 0
-57 373 63 0
-219 63 0
220 -4 -373 64 0
-58 373 64 0
-220 64 0
221 -5 -373 65 0
-59 373 65 0
-221 65 0
222 -6 -373 66 0
-60 373 66 0
-222 66 0
271 -55 -382 115 0
-109 382 115 0
-271 115 0
272 -56 -382 116 0
-110 382 116 0
-272 116 0
273 -57 -382 117 0
-111 382 117 0
-273 117 0
274 -58 -382 118 0
-112 382 118 0
-274 118 0
275 -59 -382 119 0
-113 382 119 0
-275 119 0
276 -60 -382 120 0
-114 382 120 0
-276 120 0
-163 -364 8 0
-1 364 7 0
163 -1 7 0
-164 -364 9 0
-2 364 8 0
164 -2 8 0
-165 -364 10 0
-3 364 9 0
165 -3 9 0
-166 -364 11 0
-4 364 10 0
166 -4 10 0
-167 -364 12 0
-5 364 11 0
167 -5 11 0
-168 -364 7 0
-6 364 12 0
168 -6 12 0
223 -7 -374 67 0
-61 374 67 0
-223 67 0
224 -8 -374 68 0
-62 374 68 0
-224 68 0
225 -9 -374 69 0
-63 374 69 0
-225 69 0
226 -10 -374 70 0
-64 374 70 0
-226 70 0
227 -11 -374 71 0
-65 374 71 0
-227 71 0
228 -12 -374 72 0
-66 374 72 0
-228 72 0
277 -61 -383 121 0
-115 383 121 0
-277 121 0
278 -62 -383 122 0
-116 383 122 0
-278 122 0
279 -63 -383 123 0
-117 383 123 0
-279 123 0
280 -64 -383 124 0
-118 383 124 0
-280 124 0
281 -65 -383 125 0
-119 383 125 0
-281 125 0
282 -66 -383 126 0
-120 383 126 0
-282 126 0
-169 -365 14 0
-7 365 13 0
169 -7 13 0
-170 -365 15 0
-8 365 14 0
170 -8 14 0
-171 -365 16 0
-9 365 15 0
171 -9 15 0
-172 -365 17 0
-10 365 16 0
172 -10 16 0
-173 -365 18 0
-11 365 17 0
173 -11 17 0
-174 -365 13 0
-12 365 18 0
174 -12 18 0
229 -13 -375 73 0
-67 375 73 0
-229 73 0
230 -14 -375 74 0
-68 375 74 0
-230 74 0
231 -15 -375 75 0
-69 375 75 0
-231 75 0
232 -16 -375 76 0
-70 375 76 0
-232 76 0
233 -17 -375 77 0
-71 375 77 0
-233 77 0
234 -18 -375 78 0
-72 375 78 0
-234 78 0
283 -67 -384 127 0
-121 384 127 0
-283 127 0
284 -68 -384 128 0
-122 384 128 0
-284 128 0
285 -69 -384 129 0
-123 384 129 0
-285 129 0
286 -70 -384 130 0
-124 384 130 0
-286 130 0
287 -71 -384 131 0
-125 384 131 0
-287 131 0
288 -72 -384 132 0
-126 384 132 0
-288 132 0
-175 -366 20 0
-13 366 19 0
175 -13 19 0
-176 -366 21 0
-14 366 20 0
176 -14 20 0
-177 -366 22 0
-15 366 21 0
177 -15 21 0
-178 -366 23 0
-16 366 22 0
178 -16 22 0
-179 -366 24 0
-17 366 23 0
179 -17 23 0
-180 -366 19 0
-18 366 24 0
180 -18 24 0
235 -19 -376 79 0
-73 376 79 0
-235 79 0
236 -20 -376 80 0
-74 376 80 0
-236 80 0
237 -21 -376 81 0
-75 376 81 0
-237 81 0
238 -22 -376 82 0
-76 376 82 0
-238 82 0
239 -23 -376 83 0
-77 376 83 0
-239 83 0
240 -24 -376 84 0
-78 376 84 0
-240 84 0
289 -73 -385 133 0
-127 385 133 0
-289 133 0
290 -74 -385 134 0
-128 385 134 0
-290 134 0
291 -75 -385 135 0
-129 385 135 0
-291 135 0
292 -76 -385 136 0
-130 385 136 0
-292 136 0
293 -77 -385 137 0
-131 385 137 0
-293 137 0
294 -78 -385 138 0
-132 385 138 0
-294 138 0
-181 -367 26 0
-19 367 25 0
181 -19 25 0
-182 -367 27 0
-20 367 26 0
182 -20 26 0
-183 -367 28 0
-21 367 27 0
183 -21 27 0
-184 -367 29 0
-22 367 28 0
184 -22 28 0
-185 -367 30 0
-23 367 29 0
185 -23 29 0
-186 -367 25 0
-24 367 30 0
186 -24 30 0
241 -25 -377 85 0
-79 377 85 0
-241 85 0
242 -26 -377 86 0
-80 377 86 0
-242 86 0
243 -27 -377 87 0
-81 377 87 0
-243 87 0
244 -28 -377 88 0
-82 377 88 0
-244 88 0
245 -29 -377 89 0
-83 377 89 0
-245 89 0
246 -30 -377 90 0
-84 377 90 0
-246 90 0
295 -79 -386 139 0
-133 386 139 0
-295 139 0
296 -80 -386 140 0
-134 386 140 0
-296 140 0
297 -81 -386 141 0
-135 386 141 0
-297 141 0
298 -82 -386 142 0
-136 386 142 0
-298 142 0
299 -83 -386 143 0
-137 386 143 0
-299 143 0
300 -84 -386 144 0
-138 386 144 0
-300 144 0
-187 -368 32 0
-25 368 31 0
187 -25 31 0
-188 -368 33 0
-26 368 32 0
188 -26 32 0
-189 -368 34 0
-27 368 33 0
189 -27 33 0
-190 -368 35 0
-28 368 34 0
190 -28 34 0
-191 -368 36 0
-29 368 35 0
191 -29 35 0
-192 -368 31 0
-30 368 36 0
192 -30 36 0
247 -31 -378 91 0
-85 378 91 0
-247 91 0
248 -32 -378 92 0
-86 378 92 0
-248 92 0
249 -33 -378 93 0
-87 378 93 0
-249 93 0
250 -34 -378 94 0
-88 378 94 0
-250 94 0
251 -35 -378 95 0
-89 378 95 0
-251 95 0
252 -36 -378 96 0
-90 378 96 0
-252 96 0
301 -85 -387 145 0
-139 387 145 0
-301 145 0
302 -86 -387 146 0
-140 387 146 0
-302 146 0
303 -87 -387 147 0
-141 387 147 0
-303 147 0
304 -88 -387 148 0
-142 387 148 0
-304 148 0
305 -89 -387 149 0
-143 387 149 0
-305 149 0
306 -90 -387 150 0
-144 387 150 0
-306 150 0
-193 -369 38 0
-31 369 37 0
193 -31 37 0
-194 -369 39 0
-32 369 38 0
194 -32 38 0
-195 -369 40 0
-33 369 39 0
195 -33 39 0
-196 -369 41 0
-34 369 40 0
196 -34 40 0
-197 -369 42 0
-35 369 41 0
197 -35 41 0
-198 -369 37 0
-36 369 42 0
198 -36 42 0
253 -37 -379 97 0
-91 379 97 0
-253 97 0
254 -38 -379 98 0
-92 379 98 0
-254 98 0
255 -39 -379 99 0
-93 379 99 0
-255 99 0
256 -40 -379 100 0
-94 379 100 0
-256 100 0
257 -41 -379 101 0
-95 379 101 0
-257 101 0
258 -42 -379 102 0
-96 379 102 0
-258 102 0
307 -91 -388 151 0
-145 388 151 0
-307 151 0
308 -92 -388 152 0
-146 388 152 0
-308 152 0
309 -93 -388 153 0
-147 388 153 0
-309 153 0
310 -94 -388 154 0
-148 388 154 0
-310 154 0
311 -95 -388 155 0
-149 388 155 0
-311 155 0
312 -96 -388 156 0
-150 388 156 0
-312 156 0
-199 -370 44 0
-37 370 43 0
199 -37 43 0
-200 -370 45 0
-38 370 44 0
200 -38 44 0
-201 -370 46 0
-39 370 45 0
201 -39 45 0
-202 -370 47 0
-40 370 46 0
202 -40 46 0
-203 -370 48 0
-41 370 47 0
203 -41 47 0
-204 -370 43 0
-42 370 48 0
204 -42 48 0
259 -43 -380 103 0
-97 380 103 0
-259 103 0
260 -44 -380 104 0
-98 380 104 0
-260 104 0
261 -45 -380 105 0
-99 380 105 0
-261 105 0
262 -46 -380 106 0
-100 380 106 0
-262 106 0
263 -47 -380 107 0
-101 380 107 0
-263 107 0
264 -48 -380 108 0
-102 380 108 0
-264 108 0
313 -97 -389 157 0
-151 389 157 0
-313 157 0
314 -98 -389 158 0
-152 389 158 0
-314 158 0
315 -99 -389 159 0
-153 389 159 0
-315 159 0
316 -100 -389 160 0
-154 389 160 0
-316 160 0
317 -101 -389 161 0
-155 389 161 0
-317 161 0
318 -102 -389 162 0
-156 389 162 0
-318 162 0
-205 -371 50 0
-43 371 49 0
205 -43 49 0
-206 -371 51 0
-44 371 50 0
206 -44 50 0
-207 -371 52 0
-45 371 51 0
207 -45 51 0
-208 -371 53 0
-46 371 52 0
208 -46 52 0
-209 -371 54 0
-47 371 53 0
209 -47 53 0
-210 -371 49 0
-48 371 54 0
210 -48 54 0
-163 1 0
-163 109 0
163 -1 -109 0
-164 2 0
-164 110 0
164 -2 -110 0
-165 3 0
-165 111 0
165 -3 -111 0
-166 4 0
-166 112 0
166 -4 -112 0
-167 5 0
-167 113 0
167 -5 -113 0
-168 6 0
-168 114 0
168 -6 -114 0
-217 55 0
-217 1 0
217 -55 -1 0
-218 56 0
-218 2 0
218 -56 -2 0
-219 57 0
-219 3 0
219 -57 -3 0
-220 58 0
-220 4 0
220 -58 -4 0
-221 59 0
-221 5 0
221 -59 -5 0
-222 60 0
-222 6 0
222 -60 -6 0
-271 109 0
-271 55 0
271 -109 -55 0
-272 110 0
-272 56 0
272 -110 -56 0
-273 111 0
-273 57 0
273 -111 -57 0
-274 112 0
-274 58 0
274 -112 -58 0
-275 113 0
-275 59 0
275 -113 -59 0
-276 114 0
-276 60 0
276 -114 -60 0
-169 7 0
-169 115 0
169 -7 -115 0
-170 8 0
-170 116 0
170 -8 -116 0
-171 9 0
-171 117 0
171 -9 -117 0
-172 10 0
-172 118 0
172 -10 -118 0
-173 11 0
-173 119 0
173 -11 -119 0
-174 12 0
-174 120 0
174 -12 -120 0
-223 61 0
-223 7 0
223 -61 -7 0
-224 62 0
-224 8 0
224 -62 -8 0
-225 63 0
-225 9 0
225 -63 -9 0
-226 64 0
-226 10 0
226 -64 -10 0
-227 65 0
-227 11 0
227 -65 -11 0
-228 66 0
-228 12 0
228 -66 -12 0
-277 115 0
-277 61 0
277 -115 -61 0
-278 116 0
-278 62 0
278 -116 -62 0
-279 117 0
-279 63 0
279 -117 -63 0
-280 118 0
-280 64 0
280 -118 -64 0
-281 119 0
-281 65 0
281 -119 -65 0
-282 120 0
-282 66 0
282 -120 -66 0
-175 13 0
-175 121 0
175 -13 -121 0
-176 14 0
-176 122 0
176 -14 -122 0
-177 15 0
-177 123 0
177 -15 -123 0
-178 16 0
-178 124 0
178 -16 -124 0
-179 17 0
-179 125 0
179 -17 -125 0
-180 18 0
-180 126 0
180 -18 -126 0
-229 67 0
-229 13 0
229 -67 -13 0
-230 68 0
-230 14 0
230 -68 -14 0
-231 69 0
-231 15 0
231 -69 -15 0
-232 70 0
-232 16 0
232 -70 -16 0
-233 71 0
-233 17 0
233 -71 -17 0
-234 72 0
-234 18 0
234 -72 -18 0
-283 121 0
-283 67 0
283 -121 -67 0
-284 122 0
-284 68 0
284 -122 -68 0
-285 123 0
-285 69 0
285 -123 -69 0
-286 124 0
-286 70 0
286 -124 -70 0
-287 125 0
-287 71 0
287 -125 -71 0
-288 126 0
-288 72 0
288 -126 -72 0
-181 19 0
-181 127 0
181 -19 -127 0
-182 20 0
-182 128 0
182 -20 -128 0
-183 21 0
-183 129 0
183 -21 -129 0
-184 22 0
-184 130 0
184 -22 -130 0
-185 23 0
-185 131 0
185 -23 -131 0
-186 24 0
-186 132 0
186 -24 -132 0
-235 73 0
-235 19 0
235 -73 -19 0
-236 74 0
-236 20 0
236 -74 -20 0
-237 75 0
-237 21 0
237 -75 -21 0
-238 76 0
-238 22 0
238 -76 -22 0
-239 77 0
-239 23 0
239 -77 -23 0
-240 78 0
-240 24 0
240 -78 -24 0
-289 127 0
-289 73 0
289 -127 -73 0
-290 128 0
-290 74 0
290 -128 -74 0
-291 129 0
-291 75 0
291 -129 -75 0
-292 130 0
-292 76 0
292 -130 -76 0
-293 131 0
-293 77 0
293 -131 -77 0
-294 132 0
-294 78 0
294 -132 -78 0
-187 25 0
-187 133 0
187 -25 -133 0
-188 26 0
-188 134 0
188 -26 -134 0
-189 27 0
-189 135 0
189 -27 -135 0
-190 28 0
-190 136 0
190 -28 -136 0
-191 29 0
-191 137 0
191 -29 -137 0
-192 30 0
-192 138 0
192 -30 -138 0
-241 79 0
-241 25 0
241 -79 -25 0
-242 80 0
-242 26 0
242 -80 -26 0
-243 81 0
-243 27 0
243 -81 -27 0
-244 82 0
-244 28 0
244 -82 -28 0
-245 83 0
-245 29 0
245 -83 -29 0
-246 84 0
-246 30 0
246 -84 -30 0
-295 133 0
-295 79 0
295 -133 -79 0
-296 134 0
-296 80 0
296 -134 -80 0
-297 135 0
-297 81 0
297 -135 -81 0
-298 136 0
-298 82 0
298 -136 -82 0
-299 137 0
-299 83 0
299 -137 -83 0
-300 138 0
-300 84 0
300 -138 -84 0
-193 31 0
-193 139 0
193 -31 -139 0
-194 32 0
-194 140 0
194 -32 -140 0
-195 33 0
-195 141 0
195 -33 -141 0
-196 34 0
-196 142 0
196 -34 -142 0
-197 35 0
-197 143 0
197 -35 -143 0
-198 36 0
-198 144 0
198 -36 -144 0
-247 85 0
-247 31 0
247 -85 -31 0
-248 86 0
-248 32 0
248 -86 -32 0
-249 87 0
-249 33 0
249 -87 -33 0
-250 88 0
-250 34 0
250 -88 -34 0
-251 89 0
-251 35 0
251 -89 -35 0
-252 90 0
-252 36 0
252 -90 -36 0
-301 139 0
-301 85 0
301 -139 -85 0
-302 140 0
-302 86 0
302 -140 -86 0
-303 141 0
-303 87 0
303 -141 -87 0
-304 142 0
-304 88 0
304 -142 -88 0
-305 143 0
-305 89 0
305 -143 -89 0
-306 144 0
-306 90 0
306 -144 -90 0
-199 37 0
-199 145 0
199 -37 -145 0
-200 38 0
-200 146 0
200 -38 -146 0
-201 39 0
-201 147 0
201 -39 -147 0
-202 40 0
-202 148 0
202 -40 -148 0
-203 41 0
-203 149 0
203 -41 -149 0
-204 42 0
-204 150 0
204 -42 -150 0
-253 91 0
-253 37 0
253 -91 -37 0
-254 92 0
-254 38 0
254 -92 -38 0
-255 93 0
-255 39 0
255 -93 -39 0
-256 94 0
-256 40 0
256 -94 -40 0
-257 95 0
-257 41 0
257 -95 -41 0
-258 96 0
-258 42 0
258 -96 -42 0
-307 145 0
-307 91 0
307 -145 -91 0
-308 146 0
-308 92 0
308 -146 -92 0
-309 147 0
-309 93 0
309 -147 -93 0
-310 148 0
-310 94 0
310 -148 -94 0
-311 149 0
-311 95 0
311 -149 -95 0
-312 150 0
-312 96 0
312 -150 -96 0
-205 43 0
-205 151 0
205 -43 -151 0
-206 44 0
-206 152 0
206 -44 -152 0
-207 45 0
-207 153 0
207 -45 -153 0
-208 46 0
-208 154 0
208 -46 -154 0
-209 47 0
-209 155 0
209 -47 -155 0
-210 48 0
-210 156 0
210 -48 -156 0
-259 97 0
-259 43 0
259 -97 -43 0
-260 98 0
-260 44 0
260 -98 -44 0
-261 99 0
-261 45 0
261 -99 -45 0
-262 100 0
-262 46 0
262 -100 -46 0
-263 101 0
-263 47 0
263 -101 -47 0
-264 102 0
-264 48 0
264 -102 -48 0
-313 151 0
-313 97 0
313 -151 -97 0
-314 152 0
-314 98 0
314 -152 -98 0
-315 153 0
-315 99 0
315 -153 -99 0
-316 154 0
-316 100 0
316 -154 -100 0
-317 155 0
-317 101 0
317 -155 -101 0
-318 156 0
-318 102 0
318 -156 -102 0
-211 49 0
-211 157 0
211 -49 -157 0
-212 50 0
-212 158 0
212 -50 -158 0
-213 51 0
-213 159 0
213 -51 -159 0
-214 52 0
-214 160 0
214 -52 -160 0
-215 53 0
-215 161 0
215 -53 -161 0
-216 54 0
-216 162 0
216 -54 -162 0
-265 103 0
-265 49 0
265 -103 -49 0
-266 104 0
-266 50 0
266 -104 -50 0
-267 105 0
-267 51 0
267 -105 -51 0
-268 106 0
-268 52 0
268 -106 -52 0
-269 107 0
-269 53 0
269 -107 -53 0
-270 108 0
-270 54 0
270 -108 -54 0
-319 157 0
-319 103 0
319 -157 -103 0
-320 158 0
-320 104 0
320 -158 -104 0
-321 159 0
-321 105 0
321 -159 -105 0
-322 160 0
-322 106 0
322 -160 -106 0
-323 161 0
-323 107 0
323 -161 -107 0
-324 162 0
-324 108 0
324 -162 -108 0
-325 163 164 165 166 167 168 0
-334 -217 0
-334 -218 0
-334 -219 0
-334 -220 0
-334 -221 0
-334 -222 0
-343 -271 0
-343 -272 0
-343 -273 0
-343 -274 0
-343 -275 0
-343 -276 0
-326 169 170 171 172 173 174 0
-335 -223 0
-335 -224 0
-335 -225 0
-335 -226 0
-335 -227 0
-335 -228 0
-344 -277 0
-344 -278 0
-344 -279 0
-344 -280 0
-344 -281 0
-344 -282 0
-327 175 176 177 178 179 180 0
-336 -229 0
-336 -230 0
-336 -231 0
-336 -232 0
-336 -233 0
-336 -234 0
-345 -283 0
-345 -284 0
-345 -285 0
-345 -286 0
-345 -287 0
-345 -288 0
-328 181 182 183 184 185 186 0
-337 -235 0
-337 -236 0
-337 -237 0
-337 -238 0
-337 -239 0
-337 -240 0
-346 -289 0
-346 -290 0
-346 -291 0
-346 -292 0
-346 -293 0
-346 -294 0
-329 187 188 189 190 191 192 0
-338 -241 0
-338 -242 0
-338 -243 0
-338 -244 0
-338 -245 0
-338 -246 0
-347 -295 0
-347 -296 0
-347 -297 0
-347 -298 0
-347 -299 0
-347 -300 0
-330 193 194 195 196 197 198 0
-339 -247 0
-339 -248 0
-339 -249 0
-339 -250 0
-339 -251 0
-339 -252 0
-348 -301 0
-348 -302 0
-348 -303 0
-348 -304 0
-348 -305 0
-348 -306 0
-331 199 200 201 202 203 204 0
-340 -253 0
-340 -254 0
-340 -255 0
-340 -256 0
-340 -257 0
-340 -258 0
-349 -307 0
-349 -308 0
-349 -309 0
-349 -310 0
-349 -311 0
-349 -312 0
-332 205 206 207 208 209 210 0
-341 -259 0
-341 -260 0
-341 -261 0
-341 -262 0
-341 -263 0
-341 -264 0
-350 -313 0
-350 -314 0
-350 -315 0
-350 -316 0
-350 -317 0
-350 -318 0
-333 211 212 213 214 215 216 0
-342 -265 0
-342 -266 0
-342 -267 0
-342 -268 0
-342 -269 0
-342 -270 0
-351 -319 0
-351 -320 0
-351 -321 0
-351 -322 0
-351 -323 0
-351 -324 0
-1048 0
333 1049 0
342 1049 0
333 342 1050 0
351 1051 0
-1048 1051 0
351 -1048 1052 0
-1049 1053 0
-1051 1053 0
-1049 -1051 1054 0
-1050 1055 0
-1052 1055 0
-1050 -1052 1056 0
-1054 1057 0
-1055 1057 0
-1054 -1055 1058 0
-1057 0
1 0
